(set-info :source |printed by MathSAT|)
(declare-fun |.x{116}| () Int)
(declare-fun |.x{129}| () Int)
(declare-fun |.y{5}| () Int)
(declare-fun |.y{7}| () Int)
(declare-fun |.y{6}| () Int)
(declare-fun |.y{8}| () Int)
(declare-fun |.x{117}| () (Array Int Int))
(declare-fun |.x{130}| () (Array Int Int))
(declare-fun |.x{118}| () Int)
(declare-fun |.x{131}| () Int)
(declare-fun |.x{119}| () (Array Int Int))
(declare-fun |.x{132}| () (Array Int Int))
(declare-fun |.x{120}| () Int)
(declare-fun |.x{128}| () Int)
(declare-fun |.x{121}| () Int)
(declare-fun |.x{133}| () Int)
(declare-fun |.x{122}| () (Array Int Int))
(declare-fun |.y{9}| () (Array Int Int))
(declare-fun |.x{123}| () Int)
(declare-fun |.y{10}| () Int)
(declare-fun |.loc{3}| () Bool)
(declare-fun |.loc{5}| () Bool)
(declare-fun |.loc{4}| () Bool)
(declare-fun |.loc{6}| () Bool)
(declare-fun |.x{143}| () Int)
(declare-fun |.x{51}| () Int)
(declare-fun |.x{145}| () Int)
(declare-fun |.x{169}| () Int)
(declare-fun |.x{167}| () Int)
(define-fun .def_28 () Bool (! |.loc{3}| :next |.loc{5}|))
(define-fun .def_98 () Bool (not .def_28))
(define-fun .def_30 () Bool (! |.loc{4}| :next |.loc{6}|))
(define-fun .def_32 () Bool (not .def_30))
(define-fun .def_99 () Bool (! (and .def_32 .def_98) :init true))
(define-fun .def_14 () (Array Int Int) (! |.x{117}| :next |.x{130}|))
(define-fun .def_213 () Bool (= .def_14 |.x{130}|))
(define-fun .def_22 () Int (! |.x{121}| :next |.x{133}|))
(define-fun .def_206 () Bool (= |.x{131}| .def_22))
(define-fun .def_24 () (Array Int Int) (! |.x{122}| :next |.y{9}|))
(define-fun .def_200 () Bool (= |.x{132}| .def_24))
(define-fun .def_26 () Int (! |.x{123}| :next |.y{10}|))
(define-fun .def_199 () Bool (= |.x{133}| .def_26))
(define-fun .def_201 () Bool (and .def_199 .def_200))
(define-fun .def_20 () Int (! |.x{120}| :next |.x{128}|))
(define-fun .def_129 () Bool (<= .def_26 .def_20))
(define-fun .def_202 () Bool (and .def_129 .def_201))
(define-fun .def_203 () Bool (and .def_98 .def_202))
(define-fun .def_166 () Bool (= |.x{128}| 0))
(define-fun .def_204 () Bool (and .def_166 .def_203))
(define-fun .def_205 () Bool (and .def_166 .def_204))
(define-fun .def_207 () Bool (and .def_205 .def_206))
(define-fun .def_138 () Bool (<= |.x{145}| 0))
(define-fun .def_139 () Bool (not .def_138))
(define-fun .def_16 () Int (! |.x{118}| :next |.x{131}|))
(define-fun .def_58 () Bool (<= .def_16 0))
(define-fun .def_193 () Bool (or .def_58 .def_139))
(define-fun .def_132 () Int (* (- 1) |.x{145}|))
(define-fun .def_189 () Int (+ .def_20 .def_132))
(define-fun .def_190 () Int (+ .def_16 .def_189))
(define-fun .def_191 () Bool (= .def_190 0))
(define-fun .def_8 () Int (! |.x{116}| :next |.x{129}|))
(define-fun .def_184 () Bool (<= .def_8 0))
(define-fun .def_187 () Bool (not .def_184))
(define-fun .def_40 () Bool (<= |.x{143}| 0))
(define-fun .def_41 () Bool (not .def_40))
(define-fun .def_185 () Bool (or .def_41 .def_184))
(define-fun .def_93 () Int (* (- 1) |.x{143}|))
(define-fun .def_121 () Int (+ .def_20 .def_93))
(define-fun .def_180 () Int (+ .def_8 .def_121))
(define-fun .def_181 () Bool (= .def_180 0))
(define-fun .def_177 () Bool (<= .def_22 .def_20))
(define-fun .def_178 () Bool (not .def_177))
(define-fun .def_18 () (Array Int Int) (! |.x{119}| :next |.x{132}|))
(define-fun .def_174 () Int (select .def_18 |.x{145}|))
(define-fun .def_173 () Int (select .def_14 |.x{143}|))
(define-fun .def_175 () Bool (= .def_173 .def_174))
(define-fun .def_33 () Bool (= .def_22 |.x{133}|))
(define-fun .def_176 () Bool (and .def_33 .def_175))
(define-fun .def_179 () Bool (and .def_176 .def_178))
(define-fun .def_182 () Bool (and .def_179 .def_181))
(define-fun .def_183 () Bool (and .def_28 .def_182))
(define-fun .def_186 () Bool (and .def_183 .def_185))
(define-fun .def_188 () Bool (and .def_186 .def_187))
(define-fun .def_192 () Bool (and .def_188 .def_191))
(define-fun .def_194 () Bool (and .def_192 .def_193))
(define-fun .def_70 () Bool (not .def_58))
(define-fun .def_195 () Bool (and .def_70 .def_194))
(define-fun .def_146 () Int (* (- 1) |.x{128}|))
(define-fun .def_147 () Int (+ .def_20 .def_146))
(define-fun .def_148 () Bool (= .def_147 (- 1)))
(define-fun .def_196 () Bool (and .def_148 .def_195))
(define-fun .def_88 () Bool (= .def_16 |.x{131}|))
(define-fun .def_197 () Bool (and .def_88 .def_196))
(define-fun .def_155 () Bool (= .def_18 |.x{132}|))
(define-fun .def_198 () Bool (and .def_155 .def_197))
(define-fun .def_208 () Bool (or .def_198 .def_207))
(define-fun .def_171 () Bool (and |.loc{5}| .def_30))
(define-fun .def_86 () Bool (= .def_8 |.x{129}|))
(define-fun .def_172 () Bool (and .def_86 .def_171))
(define-fun .def_209 () Bool (and .def_172 .def_208))
(define-fun .def_164 () Bool (= .def_22 |.y{10}|))
(define-fun .def_162 () Bool (= .def_20 |.x{133}|))
(define-fun .def_10 () Int (! |.y{5}| :next |.y{7}|))
(define-fun .def_159 () Bool (= |.x{129}| .def_10))
(define-fun .def_35 () Bool (= .def_24 |.y{9}|))
(define-fun .def_157 () Bool (and .def_32 .def_35))
(define-fun .def_12 () Int (! |.y{6}| :next |.y{8}|))
(define-fun .def_81 () Bool (<= .def_22 .def_12))
(define-fun .def_158 () Bool (and .def_81 .def_157))
(define-fun .def_160 () Bool (and .def_158 .def_159))
(define-fun .def_161 () Bool (and .def_28 .def_160))
(define-fun .def_163 () Bool (and .def_161 .def_162))
(define-fun .def_165 () Bool (and .def_163 .def_164))
(define-fun .def_167 () Bool (and .def_165 .def_166))
(define-fun .def_168 () Bool (and .def_88 .def_167))
(define-fun .def_153 () Bool (not |.loc{5}|))
(define-fun .def_169 () Bool (and .def_153 .def_168))
(define-fun .def_170 () Bool (and .def_155 .def_169))
(define-fun .def_210 () Bool (or .def_170 .def_209))
(define-fun .def_150 () Bool (= .def_26 |.y{10}|))
(define-fun .def_137 () Bool (<= .def_22 0))
(define-fun .def_142 () Bool (not .def_137))
(define-fun .def_140 () Bool (or .def_137 .def_139))
(define-fun .def_133 () Int (+ .def_22 .def_132))
(define-fun .def_134 () Int (+ .def_20 .def_133))
(define-fun .def_135 () Bool (= .def_134 0))
(define-fun .def_130 () Bool (not .def_129))
(define-fun .def_125 () Bool (or .def_41 .def_58))
(define-fun .def_122 () Int (+ .def_16 .def_121))
(define-fun .def_123 () Bool (= .def_122 0))
(define-fun .def_117 () Int (select .def_18 |.x{143}|))
(define-fun .def_118 () (Array Int Int) (store .def_24 |.x{145}| .def_117))
(define-fun .def_119 () Bool (= |.y{9}| .def_118))
(define-fun .def_120 () Bool (and .def_33 .def_119))
(define-fun .def_124 () Bool (and .def_120 .def_123))
(define-fun .def_126 () Bool (and .def_124 .def_125))
(define-fun .def_127 () Bool (and .def_30 .def_126))
(define-fun .def_128 () Bool (and .def_98 .def_127))
(define-fun .def_131 () Bool (and .def_128 .def_130))
(define-fun .def_136 () Bool (and .def_131 .def_135))
(define-fun .def_141 () Bool (and .def_136 .def_140))
(define-fun .def_143 () Bool (and .def_141 .def_142))
(define-fun .def_144 () Bool (and .def_70 .def_143))
(define-fun .def_145 () Bool (and .def_86 .def_144))
(define-fun .def_149 () Bool (and .def_145 .def_148))
(define-fun .def_151 () Bool (and .def_149 .def_150))
(define-fun .def_152 () Bool (and .def_88 .def_151))
(define-fun .def_154 () Bool (and .def_152 .def_153))
(define-fun .def_156 () Bool (and .def_154 .def_155))
(define-fun .def_211 () Bool (or .def_156 .def_210))
(define-fun .def_212 () Bool (and |.loc{6}| .def_211))
(define-fun .def_214 () Bool (and .def_212 .def_213))
(define-fun .def_114 () Bool (<= |.x{128}| 0))
(define-fun .def_115 () Bool (not .def_114))
(define-fun .def_111 () Bool (<= |.x{131}| 0))
(define-fun .def_112 () Bool (not .def_111))
(define-fun .def_108 () Bool (<= |.x{133}| 0))
(define-fun .def_109 () Bool (not .def_108))
(define-fun .def_104 () Bool (<= |.y{7}| 0))
(define-fun .def_105 () Bool (not .def_104))
(define-fun .def_102 () Bool (= |.y{8}| 0))
(define-fun .def_100 () Bool (and |.loc{5}| .def_99))
(define-fun .def_64 () Bool (not |.loc{6}|))
(define-fun .def_101 () Bool (and .def_64 .def_100))
(define-fun .def_103 () Bool (and .def_101 .def_102))
(define-fun .def_106 () Bool (and .def_103 .def_105))
(define-fun .def_107 () Bool (and .def_86 .def_106))
(define-fun .def_110 () Bool (and .def_107 .def_109))
(define-fun .def_113 () Bool (and .def_110 .def_112))
(define-fun .def_116 () Bool (and .def_113 .def_115))
(define-fun .def_215 () Bool (or .def_116 .def_214))
(define-fun .def_94 () Int (+ .def_12 .def_93))
(define-fun .def_95 () Int (+ .def_10 .def_94))
(define-fun .def_96 () Bool (= .def_95 0))
(define-fun .def_84 () Bool (= .def_20 |.x{128}|))
(define-fun .def_82 () Bool (not .def_81))
(define-fun .def_78 () (Array Int Int) (store .def_14 |.x{143}| |.x{145}|))
(define-fun .def_79 () Bool (= |.x{130}| .def_78))
(define-fun .def_76 () Bool (= .def_10 |.y{7}|))
(define-fun .def_73 () (Array Int Int) (store .def_18 |.x{51}| |.x{145}|))
(define-fun .def_74 () Bool (= |.x{132}| .def_73))
(define-fun .def_66 () Int (* (- 1) |.y{8}|))
(define-fun .def_67 () Int (+ .def_12 .def_66))
(define-fun .def_68 () Bool (= .def_67 (- 1)))
(define-fun .def_59 () Bool (<= |.x{51}| 0))
(define-fun .def_60 () Bool (not .def_59))
(define-fun .def_61 () Bool (or .def_58 .def_60))
(define-fun .def_53 () Int (* (- 1) |.x{51}|))
(define-fun .def_54 () Int (+ .def_16 .def_53))
(define-fun .def_55 () Int (+ .def_12 .def_54))
(define-fun .def_56 () Bool (= .def_55 0))
(define-fun .def_38 () Bool (<= .def_10 0))
(define-fun .def_44 () Bool (not .def_38))
(define-fun .def_42 () Bool (or .def_38 .def_41))
(define-fun .def_34 () Bool (and .def_32 .def_33))
(define-fun .def_36 () Bool (and .def_34 .def_35))
(define-fun .def_43 () Bool (and .def_36 .def_42))
(define-fun .def_45 () Bool (and .def_43 .def_44))
(define-fun .def_46 () Bool (and .def_28 .def_45))
(define-fun .def_57 () Bool (and .def_46 .def_56))
(define-fun .def_62 () Bool (and .def_57 .def_61))
(define-fun .def_63 () Bool (and |.loc{5}| .def_62))
(define-fun .def_65 () Bool (and .def_63 .def_64))
(define-fun .def_69 () Bool (and .def_65 .def_68))
(define-fun .def_71 () Bool (and .def_69 .def_70))
(define-fun .def_75 () Bool (and .def_71 .def_74))
(define-fun .def_77 () Bool (and .def_75 .def_76))
(define-fun .def_80 () Bool (and .def_77 .def_79))
(define-fun .def_83 () Bool (and .def_80 .def_82))
(define-fun .def_85 () Bool (and .def_83 .def_84))
(define-fun .def_87 () Bool (and .def_85 .def_86))
(define-fun .def_89 () Bool (and .def_87 .def_88))
(define-fun .def_97 () Bool (and .def_89 .def_96))
(define-fun .def_216 () Bool (! (or .def_97 .def_215) :trans true))
(define-fun .def_217 () Int (! |.x{169}| :next |.xpv{1}|))
(define-fun .def_225 () Int (! |.x{167}| :next |.xpv{2}|))
(define-fun .def_244 () Bool (and .def_28 .def_30))
(define-fun .def_240 () Int (select .def_18 .def_217))
(define-fun .def_239 () Int (select .def_14 .def_225))
(define-fun .def_241 () Bool (= .def_239 .def_240))
(define-fun .def_242 () Bool (not .def_241))
(define-fun .def_229 () Int (* (- 1) .def_225))
(define-fun .def_230 () Int (+ .def_20 .def_229))
(define-fun .def_231 () Int (+ .def_8 .def_230))
(define-fun .def_232 () Bool (= .def_231 0))
(define-fun .def_233 () Bool (and .def_178 .def_232))
(define-fun .def_226 () Bool (<= .def_225 0))
(define-fun .def_227 () Bool (not .def_226))
(define-fun .def_228 () Bool (or .def_184 .def_227))
(define-fun .def_234 () Bool (and .def_228 .def_233))
(define-fun .def_235 () Bool (and .def_187 .def_234))
(define-fun .def_221 () Int (* (- 1) .def_217))
(define-fun .def_222 () Int (+ .def_20 .def_221))
(define-fun .def_223 () Int (+ .def_16 .def_222))
(define-fun .def_224 () Bool (= .def_223 0))
(define-fun .def_236 () Bool (and .def_224 .def_235))
(define-fun .def_218 () Bool (<= .def_217 0))
(define-fun .def_219 () Bool (not .def_218))
(define-fun .def_220 () Bool (or .def_58 .def_219))
(define-fun .def_237 () Bool (and .def_220 .def_236))
(define-fun .def_238 () Bool (and .def_70 .def_237))
(define-fun .def_243 () Bool (and .def_238 .def_242))
(define-fun .def_245 () Bool (and .def_243 .def_244))
(define-fun .def_248 () Bool (! (not .def_245) :invar-property 0))
(assert true)
